*************************************************************

   NEOS Server Version 6.0
   Job#     : 16178996
   Password : VSREcjOZ
   User     : 
   Solver   : lp:HiGHS:AMPL
   Start    : 2025-06-08 07:15:00
   End      : 2025-06-08 07:15:21
   Host     : prod-sub-1.neos-server.org

   Disclaimer:

   This information is provided without any express or
   implied warranty. In particular, there is no warranty
   of any kind concerning the fitness of this
   information for any particular purpose.

   Announcements:
*************************************************************
You are using the solver highsampl.
Checking ampl.mod for highsampl_options...
Checking ampl.com for highsampl_options...
Executing AMPL.
processing data.
processing commands.
Executing on prod-exec-6.neos-server.org

"option presolve 10;" used, but "option presolve 3;" would suffice.
60 variables:
	40 binary variables
	20 linear variables
66 constraints, all linear; 151 nonzeros
	5 equality constraints
	61 inequality constraints
1 linear objective; 40 nonzeros.

HiGHS 1.7.0:   tech:outlev = 1
Running HiGHS 1.7.0 (git hash: 50670fd): Copyright (c) 2024 HiGHS under MIT licence terms
Coefficient ranges:
  Matrix [1e-01, 3e+00]
  Cost   [2e+00, 9e+00]
  Bound  [1e+00, 1e+00]
  RHS    [3e+00, 3e+00]
Presolving model
66 rows, 60 cols, 151 nonzeros  0s
58 rows, 52 cols, 135 nonzeros  0s

Solving MIP model with:
   58 rows
   52 cols (36 binary, 0 integer, 0 implied int., 16 continuous)
   135 nonzeros

        Nodes      |    B&B Tree     |            Objective Bounds              |  Dynamic Constraints |       Work      
     Proc. InQueue |  Leaves   Expl. | BestBound       BestSol              Gap |   Cuts   InLp Confl. | LpIters     Time

         0       0         0   0.00%   332.8235147     -inf                 inf        0      0      0         0     0.0s
 R       0       0         0   0.00%   143.3916028     103.8286367       38.10%        0      0      0        46     0.0s
 C       0       0         0   0.00%   133.5107492     104.8454617       27.34%       81      8      0        59     0.0s
 L       0       0         0   0.00%   133.5107492     133.5107492        0.00%       81      8      0        59     0.0s
 T       0       0         0   0.00%   133.5107492     133.5107492        0.00%       81      8      0        64     0.0s

Solving report
  Status            Optimal
  Primal bound      133.510749167
  Dual bound        133.510749167
  Gap               0% (tolerance: 0.01%)
  Solution status   feasible
                    133.510749167 (objective)
                    0 (bound viol.)
                    1.99840144433e-15 (int. viol.)
                    0 (row viol.)
  Timing            0.01 (total)
                    0.00 (presolve)
                    0.00 (postsolve)
  Nodes             1
  LP iterations     64 (total)
                    0 (strong br.)
                    13 (separation)
                    5 (heuristics)
HiGHS 1.7.0: optimal solution; objective 133.5107492
64 simplex iterations
1 branching nodes
NPV = 133.511

x[m,j] :=
1 Mine1   2
1 Mine2   0
1 Mine3   1.3
1 Mine4   2.45
2 Mine1   0
2 Mine2   2.5
2 Mine3   1.3
2 Mine4   2.2
3 Mine1   1.95
3 Mine2   0
3 Mine3   1.3
3 Mine4   0
4 Mine1   0.125
4 Mine2   2.5
4 Mine3   0
4 Mine4   3
5 Mine1   2
5 Mine2   2.16667
5 Mine3   1.3
5 Mine4   0
;

y[m,j] :=
1 Mine1   1
1 Mine2   0
1 Mine3   1
1 Mine4   1
2 Mine1   0
2 Mine2   1
2 Mine3   1
2 Mine4   1
3 Mine1   1
3 Mine2   0
3 Mine3   1
3 Mine4   0
4 Mine1   1
4 Mine2   1
4 Mine3   0
4 Mine4   1
5 Mine1   1
5 Mine2   1
5 Mine3   1
5 Mine4   0
;

z[m,j] :=
1 Mine1   1
1 Mine2   1
1 Mine3   1
1 Mine4   1
2 Mine1   1
2 Mine2   1
2 Mine3   1
2 Mine4   1
3 Mine1   1
3 Mine2   1
3 Mine3   1
3 Mine4   1
4 Mine1   1
4 Mine2   1
4 Mine3   1
4 Mine4   1
5 Mine1   1
5 Mine2   1
5 Mine3   1
5 Mine4   0
;

NEOS Server Home
